c Random generated cnf formula, satisfiable: false
p cnf 10 50
-7 5 -3 0
3 -5 2 0
-10 -3 6 0
-6 7 -9 0
3 6 4 0
4 10 -1 0
1 -6 8 0
3 -4 -1 0
-9 6 5 0
-4 -7 -10 0
-10 -6 7 0
7 -5 9 0
10 1 -3 0
-6 8 7 0
5 6 7 0
9 5 8 0
7 9 2 0
8 4 -10 0
9 10 6 0
10 9 6 0
-5 -4 -7 0
-9 7 -8 0
-8 -7 -1 0
10 3 -4 0
2 1 9 0
-5 2 4 0
-10 4 1 0
2 3 -6 0
-9 3 6 0
4 9 7 0
2 -6 -8 0
5 -8 -1 0
5 2 -1 0
5 7 -1 0
7 -2 8 0
6 7 9 0
7 -3 -8 0
-6 1 10 0
5 -6 -2 0
-9 10 -2 0
-6 -4 7 0
-1 8 -9 0
-4 9 5 0
-4 -6 3 0
3 -6 -2 0
8 -6 -1 0
-4 1 5 0
3 6 9 0
8 -6 5 0
-8 -2 -7 0
